
n_res = 6;
rcap = [39, 44, 44, 43, 1423, 1439];
rtype = [1, 1, 1, 1, 2, 2];
n_tasks = 100;
modes =  [{1, 2, 3}, {4, 5, 6}, {7, 8, 9}, {10, 11, 12}, {13, 14, 15}, {16, 17, 18}, {19, 20, 21}, {22, 23, 24}, {25, 26, 27}, {28, 29, 30}, {31, 32, 33}, {34, 35, 36}, {37, 38, 39}, {40, 41, 42}, {43, 44, 45}, {46, 47, 48}, {49, 50, 51}, {52, 53, 54}, {55, 56, 57}, {58, 59, 60}, {61, 62, 63}, {64, 65, 66}, {67, 68, 69}, {70, 71, 72}, {73, 74, 75}, {76, 77, 78}, {79, 80, 81}, {82, 83, 84}, {85, 86, 87}, {88, 89, 90}, {91, 92, 93}, {94, 95, 96}, {97, 98, 99}, {100, 101, 102}, {103, 104, 105}, {106, 107, 108}, {109, 110, 111}, {112, 113, 114}, {115, 116, 117}, {118, 119, 120}, {121, 122, 123}, {124, 125, 126}, {127, 128, 129}, {130, 131, 132}, {133, 134, 135}, {136, 137, 138}, {139, 140, 141}, {142, 143, 144}, {145, 146, 147}, {148, 149, 150}, {151, 152, 153}, {154, 155, 156}, {157, 158, 159}, {160, 161, 162}, {163, 164, 165}, {166, 167, 168}, {169, 170, 171}, {172, 173, 174}, {175, 176, 177}, {178, 179, 180}, {181, 182, 183}, {184, 185, 186}, {187, 188, 189}, {190, 191, 192}, {193, 194, 195}, {196, 197, 198}, {199, 200, 201}, {202, 203, 204}, {205, 206, 207}, {208, 209, 210}, {211, 212, 213}, {214, 215, 216}, {217, 218, 219}, {220, 221, 222}, {223, 224, 225}, {226, 227, 228}, {229, 230, 231}, {232, 233, 234}, {235, 236, 237}, {238, 239, 240}, {241, 242, 243}, {244, 245, 246}, {247, 248, 249}, {250, 251, 252}, {253, 254, 255}, {256, 257, 258}, {259, 260, 261}, {262, 263, 264}, {265, 266, 267}, {268, 269, 270}, {271, 272, 273}, {274, 275, 276}, {277, 278, 279}, {280, 281, 282}, {283, 284, 285}, {286, 287, 288}, {289, 290, 291}, {292, 293, 294}, {295, 296, 297}, {298, 299, 300}];
succ =  [{47, 37, 30, 29, 18, 16, 12, 11}, {54, 47, 46, 43, 35, 34, 31, 24, 20, 13, 12}, {47, 46, 44, 37, 35, 33, 32, 31, 29, 25, 18}, {56, 40, 38, 36, 34, 27, 26, 21, 20, 18}, {55, 47, 36, 31, 28, 27, 26, 11}, {47, 44, 43, 40, 39, 37, 34, 28, 27, 24, 16}, {47, 46, 44, 38, 37, 36, 29, 25, 18}, {47, 35, 27, 22, 18, 16}, {56, 50, 49, 44, 43, 37, 27, 21, 16}, {56, 54, 50, 46, 44, 35, 29, 20}, {63, 54, 52, 48, 46, 42, 40, 38, 35, 34, 33}, {63, 62, 56, 55, 50, 48, 45, 44, 40, 36, 27}, {63, 59, 58, 56, 52, 49, 45, 41, 39, 37, 30}, {67, 59, 55, 54, 53, 46, 43, 42, 35, 28}, {67, 55, 44, 39, 35, 29, 28}, {67, 63, 62, 55, 54, 48, 46, 45, 42, 41, 38, 36}, {66, 63, 59, 56, 54, 52, 50, 46, 42, 41, 39, 37}, {67, 59, 58, 55, 54, 43, 39, 28}, {67, 58, 50, 49, 48, 46, 45, 44, 43, 42, 41}, {76, 70, 65, 59, 52, 49, 45, 41, 37}, {71, 67, 63, 62, 59, 57, 54, 53, 51, 48, 42, 35}, {76, 71, 69, 66, 65, 63, 60, 59, 58, 55, 51, 37}, {77, 67, 63, 59, 56, 55, 52, 50, 43, 42, 41}, {81, 77, 76, 71, 70, 67, 66, 65, 62, 60, 59, 56, 50, 48, 45}, {76, 71, 70, 67, 66, 63, 61, 58, 56, 53, 45, 40}, {77, 76, 75, 69, 66, 64, 63, 62, 61, 58, 57, 52, 44}, {80, 77, 75, 74, 73, 67, 66, 59, 57, 53, 42, 41}, {100, 81, 76, 63, 62, 50, 49, 45, 41}, {77, 75, 70, 69, 63, 62, 61, 53, 49, 42}, {93, 77, 73, 71, 70, 66, 64, 61, 57, 50, 42}, {76, 69, 67, 62, 61, 60, 57, 48, 38}, {80, 76, 75, 73, 72, 67, 65, 57, 54, 41}, {77, 70, 61, 59, 58, 56, 53, 50, 43}, {100, 81, 80, 79, 76, 75, 74, 73, 71, 69, 67, 66, 64, 61, 60, 59}, {100, 80, 79, 77, 75, 73, 72, 70, 69, 65, 64, 61, 58}, {98, 80, 77, 70, 66, 65, 59, 57, 53, 52}, {95, 81, 77, 74, 67, 62, 53, 48}, {99, 97, 95, 94, 81, 75, 68, 64, 59, 58}, {100, 72, 71, 65, 60, 57, 53}, {100, 99, 97, 94, 81, 79, 73, 65, 64, 59, 57}, {78, 69, 64, 60, 51}, {100, 99, 97, 96, 95, 94, 92, 91, 81, 79, 76, 72, 65, 60}, {100, 99, 97, 94, 93, 92, 79, 78, 73, 68, 65, 62}, {98, 96, 95, 94, 92, 91, 79, 70, 65, 60, 59}, {97, 93, 87, 75, 74, 73, 72, 69, 64, 57}, {100, 99, 98, 95, 94, 93, 92, 91, 89, 88, 80, 73, 70, 65}, {97, 96, 95, 94, 91, 81, 79, 75, 72, 71, 68}, {100, 97, 91, 90, 87, 79, 78, 75, 73, 68, 64}, {99, 98, 97, 93, 91, 88, 80, 74, 71, 66}, {99, 91, 90, 89, 80, 79, 74, 72, 69}, {94, 93, 90, 87, 86, 79, 68, 61}, {100, 96, 95, 94, 90, 88, 86, 85, 84, 79, 78, 71}, {99, 94, 93, 92, 87, 79, 78, 68, 64}, {100, 98, 96, 95, 93, 91, 89, 88, 85, 84, 81, 79, 78, 77}, {100, 98, 97, 94, 93, 88, 78, 73, 70}, {97, 91, 86, 80, 78, 74, 68}, {95, 91, 90, 89, 86, 85, 84, 78}, {98, 93, 91, 90, 87, 84, 74}, {93, 87, 85, 82, 72}, {90, 86, 82, 68}, {99, 98, 97, 92, 91, 89, 88, 83}, {98, 91, 88, 85, 84, 82, 80}, {96, 93, 87, 86, 84, 82, 78}, {96, 88, 86, 85, 83, 82}, {90, 87, 86, 85, 84, 82}, {90, 86, 84, 82, 78}, {93, 92, 89, 86, 78}, {89, 88, 85, 84, 83}, {95, 94, 88, 85, 82}, {90, 87, 85, 83, 82}, {92, 89, 87, 82}, {86, 84, 78}, {84, 83, 82}, {85, 82}, {92, 85}, {86, 84}, {83, 82}, {83}, {82}, {87}, {83}, {}, {}, {}, {}, {}, {}, {}, {}, {}, {}, {}, {}, {}, {}, {}, {}, {}, {}, {}];
n_opt = 300;
dur = [6, 18, 30, 7, 12, 20, 2, 6, 14, 4, 17, 27, 3, 17, 30, 1, 10, 29, 3, 14, 23, 12, 22, 30, 1, 17, 30, 13, 22, 23, 3, 6, 16, 4, 5, 9, 5, 15, 18, 6, 7, 22, 7, 19, 27, 3, 7, 14, 25, 29, 30, 4, 6, 19, 20, 27, 29, 6, 7, 18, 1, 2, 23, 1, 6, 30, 18, 21, 29, 8, 16, 24, 2, 4, 13, 10, 13, 23, 6, 9, 21, 7, 18, 26, 20, 25, 30, 6, 9, 10, 6, 13, 15, 17, 19, 25, 2, 10, 26, 9, 14, 18, 7, 24, 29, 4, 22, 26, 18, 22, 28, 15, 24, 25, 23, 24, 25, 6, 23, 27, 7, 25, 29, 2, 10, 11, 3, 5, 27, 3, 14, 24, 3, 19, 28, 2, 14, 16, 2, 15, 27, 13, 15, 25, 7, 27, 29, 9, 16, 24, 2, 17, 19, 20, 27, 28, 2, 3, 29, 2, 17, 26, 11, 19, 25, 9, 12, 15, 3, 23, 28, 22, 24, 28, 7, 14, 22, 14, 16, 25, 2, 10, 11, 12, 24, 25, 5, 7, 18, 8, 9, 14, 15, 16, 28, 6, 17, 25, 8, 12, 22, 1, 3, 12, 12, 13, 30, 5, 13, 17, 7, 23, 28, 3, 24, 25, 3, 20, 24, 3, 4, 25, 10, 17, 26, 14, 16, 23, 11, 22, 26, 26, 27, 28, 15, 26, 30, 2, 16, 23, 8, 17, 20, 6, 11, 16, 6, 19, 22, 6, 10, 18, 13, 23, 27, 12, 13, 22, 5, 11, 30, 8, 9, 25, 17, 18, 28, 1, 13, 24, 1, 2, 28, 6, 24, 28, 2, 3, 21, 9, 14, 29, 13, 24, 26, 15, 25, 26, 5, 24, 28, 11, 13, 25, 17, 19, 24, 1, 20, 22];
rreq = [|3, 2, 1, 2, 2, 2, 5, 4, 3, 5, 4, 3, 2, 2, 1, 3, 3, 2, 3, 3, 3, 4, 2, 2, 3, 3, 1, 2, 2, 1, 3, 3, 2, 5, 4, 4, 3, 2, 2, 1, 1, 1, 4, 2, 2, 1, 1, 1, 2, 1, 1, 4, 2, 1, 5, 5, 5, 3, 2, 2, 5, 5, 5, 2, 2, 2, 3, 2, 2, 5, 4, 4, 5, 5, 5, 2, 2, 2, 3, 3, 2, 2, 1, 1, 3, 3, 2, 1, 1, 1, 2, 2, 2, 1, 1, 1, 5, 4, 4, 3, 2, 2, 2, 2, 2, 4, 3, 2, 5, 5, 5, 5, 3, 3, 4, 2, 2, 4, 3, 2, 4, 4, 4, 4, 4, 4, 4, 4, 4, 5, 4, 4, 4, 3, 2, 5, 4, 3, 5, 3, 3, 3, 3, 1, 3, 3, 3, 2, 1, 1, 4, 4, 4, 4, 4, 4, 4, 3, 2, 3, 1, 1, 3, 3, 3, 5, 3, 2, 2, 2, 2, 2, 1, 1, 2, 2, 1, 4, 3, 3, 5, 2, 1, 3, 3, 2, 4, 3, 3, 4, 2, 2, 4, 3, 3, 2, 2, 1, 3, 3, 3, 4, 3, 2, 3, 3, 2, 2, 1, 1, 4, 4, 3, 2, 1, 1, 4, 3, 3, 4, 4, 4, 3, 2, 2, 4, 2, 1, 2, 2, 1, 3, 3, 2, 5, 4, 4, 3, 2, 1, 3, 1, 1, 4, 3, 3, 1, 1, 1, 1, 1, 1, 3, 3, 3, 4, 4, 4, 4, 4, 4, 2, 1, 1, 2, 2, 1, 5, 3, 2, 3, 3, 1, 4, 3, 3, 2, 2, 2, 5, 4, 3, 2, 1, 1, 3, 2, 2, 1, 1, 1, 5, 4, 3, 2, 1, 1, 3, 3, 1
 |1, 1, 1, 3, 3, 1, 1, 1, 1, 3, 3, 3, 5, 4, 4, 4, 2, 2, 5, 4, 3, 5, 4, 3, 3, 2, 2, 4, 4, 4, 5, 3, 2, 4, 4, 4, 4, 2, 2, 4, 4, 4, 3, 3, 3, 4, 3, 2, 4, 4, 4, 4, 4, 4, 4, 3, 3, 5, 3, 1, 5, 4, 3, 3, 2, 2, 4, 3, 2, 3, 2, 2, 2, 1, 1, 4, 4, 3, 5, 4, 4, 3, 3, 2, 3, 3, 2, 1, 1, 1, 1, 1, 1, 4, 4, 4, 4, 3, 2, 3, 3, 3, 2, 2, 2, 5, 4, 4, 4, 3, 2, 1, 1, 1, 3, 3, 2, 3, 3, 3, 2, 1, 1, 4, 2, 1, 4, 4, 3, 2, 2, 2, 3, 2, 2, 5, 4, 4, 4, 3, 1, 5, 4, 3, 3, 1, 1, 5, 3, 2, 3, 1, 1, 5, 4, 4, 4, 4, 4, 3, 2, 2, 1, 1, 1, 3, 2, 2, 3, 2, 2, 2, 2, 2, 5, 3, 2, 2, 2, 2, 5, 3, 3, 5, 3, 3, 5, 3, 3, 2, 2, 1, 4, 3, 2, 2, 2, 2, 3, 1, 1, 4, 4, 4, 5, 5, 5, 2, 2, 2, 4, 3, 2, 5, 4, 4, 4, 4, 4, 3, 3, 2, 4, 2, 1, 1, 1, 1, 1, 1, 1, 5, 3, 3, 1, 1, 1, 5, 4, 2, 5, 3, 3, 3, 3, 3, 1, 1, 1, 3, 3, 1, 4, 3, 3, 3, 3, 2, 3, 2, 1, 4, 3, 1, 3, 2, 2, 2, 1, 1, 4, 4, 4, 3, 2, 1, 3, 2, 2, 4, 4, 3, 3, 3, 2, 2, 1, 1, 4, 4, 4, 5, 4, 2, 5, 3, 3, 3, 2, 2
 |3, 2, 2, 1, 1, 1, 3, 3, 3, 1, 1, 1, 2, 2, 2, 2, 2, 2, 2, 1, 1, 3, 3, 3, 4, 3, 3, 4, 4, 3, 5, 5, 5, 3, 3, 3, 3, 3, 1, 5, 4, 4, 2, 1, 1, 2, 2, 2, 4, 3, 3, 5, 3, 3, 4, 4, 3, 5, 4, 3, 1, 1, 1, 4, 4, 3, 3, 3, 3, 3, 2, 1, 2, 2, 2, 2, 2, 2, 4, 3, 1, 4, 4, 3, 5, 2, 1, 3, 3, 3, 5, 4, 3, 4, 4, 4, 4, 3, 3, 2, 2, 2, 4, 3, 2, 2, 1, 1, 4, 3, 2, 4, 4, 3, 4, 4, 3, 4, 2, 2, 3, 1, 1, 1, 1, 1, 2, 2, 2, 3, 2, 2, 5, 3, 1, 3, 2, 1, 4, 4, 4, 3, 1, 1, 3, 2, 1, 5, 3, 3, 4, 4, 4, 3, 2, 2, 3, 2, 2, 4, 2, 1, 4, 4, 4, 4, 2, 2, 2, 2, 2, 4, 3, 2, 3, 3, 2, 3, 2, 1, 1, 1, 1, 3, 2, 2, 3, 3, 2, 4, 4, 4, 3, 3, 3, 3, 2, 2, 1, 1, 1, 3, 3, 3, 2, 2, 1, 4, 3, 2, 3, 3, 2, 2, 1, 1, 4, 4, 4, 5, 4, 4, 4, 4, 4, 4, 3, 3, 4, 3, 3, 4, 2, 2, 5, 2, 2, 4, 3, 2, 3, 3, 3, 4, 4, 2, 3, 3, 1, 3, 1, 1, 4, 2, 1, 4, 3, 3, 5, 5, 5, 2, 2, 1, 5, 5, 5, 3, 1, 1, 4, 2, 2, 3, 2, 2, 2, 1, 1, 5, 4, 2, 5, 3, 2, 3, 3, 1, 2, 2, 2, 4, 3, 2, 1, 1, 1, 4, 4, 4
 |3, 3, 1, 5, 4, 4, 4, 3, 3, 3, 3, 1, 5, 2, 2, 2, 1, 1, 2, 2, 2, 3, 2, 1, 5, 3, 3, 3, 3, 3, 3, 2, 2, 3, 3, 3, 5, 4, 4, 3, 3, 3, 1, 1, 1, 3, 3, 3, 4, 3, 3, 4, 4, 3, 3, 3, 2, 5, 4, 4, 4, 3, 3, 2, 1, 1, 2, 2, 2, 4, 4, 4, 4, 3, 2, 4, 3, 3, 4, 4, 4, 3, 2, 2, 3, 2, 2, 4, 4, 3, 5, 4, 4, 4, 4, 3, 4, 3, 2, 3, 3, 2, 4, 3, 3, 1, 1, 1, 4, 2, 2, 3, 3, 3, 3, 2, 2, 2, 2, 2, 4, 3, 2, 3, 3, 3, 4, 2, 1, 3, 3, 3, 4, 4, 4, 2, 1, 1, 3, 3, 1, 4, 4, 3, 5, 3, 3, 2, 2, 1, 5, 4, 4, 5, 4, 4, 4, 4, 2, 4, 4, 4, 5, 2, 1, 4, 4, 3, 2, 1, 1, 4, 4, 4, 1, 1, 1, 5, 4, 3, 2, 2, 2, 3, 3, 2, 4, 4, 4, 4, 4, 3, 2, 2, 1, 1, 1, 1, 4, 4, 3, 1, 1, 1, 5, 4, 4, 2, 2, 2, 4, 2, 1, 5, 4, 2, 3, 1, 1, 2, 1, 1, 2, 1, 1, 3, 3, 2, 3, 3, 3, 4, 2, 1, 2, 2, 2, 3, 2, 1, 2, 2, 2, 3, 3, 1, 3, 2, 2, 5, 4, 4, 2, 2, 2, 1, 1, 1, 5, 4, 2, 4, 4, 2, 3, 3, 2, 1, 1, 1, 5, 5, 5, 4, 4, 4, 2, 2, 1, 5, 4, 4, 2, 1, 1, 2, 2, 2, 2, 1, 1, 3, 3, 3, 3, 2, 2, 4, 3, 2
 |18, 14, 8, 12, 8, 4, 5, 4, 3, 14, 13, 11, 16, 16, 12, 5, 4, 3, 9, 8, 8, 4, 4, 2, 26, 24, 19, 21, 11, 7, 14, 10, 6, 22, 14, 7, 23, 19, 17, 21, 17, 13, 27, 24, 24, 15, 13, 8, 13, 11, 6, 15, 15, 10, 9, 5, 5, 29, 24, 22, 10, 7, 4, 20, 16, 11, 24, 23, 22, 6, 5, 5, 25, 20, 18, 22, 17, 15, 27, 17, 14, 11, 10, 8, 8, 7, 5, 12, 11, 10, 7, 6, 3, 5, 5, 5, 11, 9, 8, 16, 12, 6, 25, 24, 22, 9, 9, 6, 29, 21, 21, 24, 22, 19, 20, 15, 11, 19, 17, 16, 25, 21, 9, 22, 21, 19, 22, 16, 4, 23, 23, 9, 22, 14, 14, 28, 27, 27, 19, 18, 18, 19, 15, 13, 12, 9, 5, 14, 9, 7, 14, 13, 12, 13, 9, 6, 22, 22, 17, 17, 16, 8, 20, 19, 12, 13, 8, 7, 23, 22, 19, 14, 11, 6, 26, 25, 24, 14, 13, 13, 24, 22, 21, 23, 18, 12, 5, 5, 4, 4, 2, 1, 4, 3, 2, 23, 16, 9, 18, 17, 16, 19, 8, 1, 20, 9, 6, 11, 9, 9, 17, 8, 7, 16, 15, 10, 23, 20, 12, 21, 16, 6, 23, 21, 21, 16, 15, 15, 29, 28, 28, 13, 9, 6, 24, 22, 19, 24, 14, 3, 10, 8, 6, 28, 26, 20, 21, 20, 18, 25, 23, 20, 27, 19, 8, 16, 15, 14, 2, 2, 2, 6, 5, 2, 28, 16, 14, 28, 22, 17, 17, 16, 13, 13, 13, 8, 18, 13, 11, 14, 12, 11, 19, 14, 13, 20, 10, 9, 29, 28, 28, 8, 6, 1, 14, 12, 7, 7, 7, 7
 |5, 5, 4, 18, 15, 14, 18, 14, 12, 15, 15, 14, 21, 11, 8, 24, 20, 16, 21, 20, 19, 13, 10, 9, 25, 25, 23, 14, 11, 9, 10, 9, 5, 28, 26, 25, 13, 9, 8, 12, 11, 5, 24, 23, 22, 3, 2, 1, 22, 14, 10, 22, 11, 7, 24, 20, 19, 11, 9, 9, 16, 9, 5, 17, 12, 9, 14, 13, 8, 11, 7, 5, 11, 11, 10, 22, 21, 21, 9, 9, 7, 24, 15, 8, 9, 8, 5, 21, 21, 17, 11, 11, 10, 19, 12, 12, 26, 25, 25, 9, 7, 5, 22, 14, 9, 17, 17, 13, 27, 26, 21, 21, 17, 4, 15, 14, 14, 23, 17, 10, 21, 21, 21, 14, 9, 7, 11, 7, 4, 11, 8, 7, 13, 10, 6, 9, 7, 7, 25, 18, 14, 25, 23, 23, 21, 18, 16, 23, 21, 18, 20, 16, 11, 8, 4, 4, 3, 1, 1, 18, 10, 3, 25, 25, 22, 21, 19, 19, 9, 7, 6, 3, 3, 2, 16, 14, 14, 11, 9, 8, 27, 22, 15, 26, 23, 20, 19, 11, 4, 11, 9, 9, 27, 26, 25, 29, 25, 24, 9, 4, 4, 21, 20, 18, 19, 15, 7, 6, 5, 5, 13, 11, 6, 16, 12, 9, 14, 11, 6, 26, 11, 8, 18, 15, 8, 21, 20, 19, 27, 20, 4, 9, 6, 3, 26, 23, 20, 21, 21, 21, 25, 19, 15, 24, 23, 20, 17, 17, 16, 11, 8, 4, 22, 17, 14, 20, 12, 4, 17, 11, 5, 16, 12, 4, 25, 24, 24, 19, 14, 8, 18, 9, 9, 20, 20, 18, 12, 12, 12, 18, 17, 9, 17, 13, 7, 26, 14, 6, 25, 21, 15, 6, 4, 3, 21, 16, 14, 17, 13, 11|];